p edge 60 180
e 1 44
e 1 47
e 1 58
e 2 54
e 2 56
e 2 56
e 3 10
e 3 13
e 3 47
e 4 2
e 4 3
e 4 8
e 5 20
e 5 24
e 5 51
e 6 1
e 6 7
e 6 47
e 7 12
e 7 17
e 7 53
e 8 9
e 8 10
e 8 28
e 9 3
e 9 3
e 9 51
e 10 8
e 10 44
e 10 56
e 11 30
e 11 43
e 11 43
e 12 19
e 12 28
e 12 30
e 13 14
e 13 17
e 13 32
e 14 10
e 14 23
e 14 34
e 15 22
e 15 45
e 15 60
e 16 38
e 16 39
e 16 45
e 17 31
e 17 36
e 17 54
e 18 21
e 18 32
e 18 47
e 19 3
e 19 34
e 19 57
e 20 2
e 20 17
e 20 51
e 21 45
e 21 46
e 21 46
e 22 6
e 22 28
e 22 57
e 23 10
e 23 14
e 23 47
e 24 16
e 24 18
e 24 25
e 25 15
e 25 43
e 25 46
e 26 15
e 26 28
e 26 45
e 27 4
e 27 8
e 27 51
e 28 37
e 28 39
e 28 49
e 29 4
e 29 9
e 29 25
e 30 12
e 30 15
e 30 20
e 31 1
e 31 13
e 31 57
e 32 20
e 32 49
e 32 53
e 33 7
e 33 47
e 33 55
e 34 11
e 34 16
e 34 60
e 35 15
e 35 48
e 35 59
e 36 3
e 36 18
e 36 22
e 37 13
e 37 53
e 37 58
e 38 2
e 38 21
e 38 57
e 39 2
e 39 27
e 39 46
e 40 5
e 40 30
e 40 60
e 41 10
e 41 38
e 41 52
e 42 12
e 42 22
e 42 58
e 43 8
e 43 10
e 43 36
e 44 17
e 44 18
e 44 28
e 45 6
e 45 7
e 45 34
e 46 24
e 46 47
e 46 60
e 47 29
e 47 45
e 47 52
e 48 4
e 48 30
e 48 33
e 49 29
e 49 31
e 49 60
e 50 10
e 50 36
e 50 41
e 51 24
e 51 37
e 51 39
e 52 2
e 52 26
e 52 27
e 53 29
e 53 36
e 53 60
e 54 2
e 54 9
e 54 45
e 55 14
e 55 41
e 55 51
e 56 5
e 56 15
e 56 25
e 57 4
e 57 35
e 57 48
e 58 26
e 58 48
e 58 52
e 59 17
e 59 40
e 59 53
e 60 12
e 60 18
e 60 29
